100
300
239
237
230
227
225
217
216
214
213
212
207
206
201
201
197
196
195
194
193
193
191
191
190
181
180
180
180
179
179
179
178
178
176
171
169
166
165
164
163
158
154
153
143
143
128
127
126
126
122
121
119
118
118
116
113
110
109
107
106
106
100
98
97
93
92
90
85
81
76
76
75
69
69
68
67
65
65
65
63
61
53
53
49
47
46
43
42
42
41
40
39
38
37
37
36
35
34
32
31
31
